c 1 __UCLIBC_HAS_STDIO_BUFSIZ_512__
c 7 __UCLIBC_HAS_STDIO_BUFSIZ_1024__
c 4 __UCLIBC_HAS_STDIO_BUFSIZ_NONE__
c 8 __UCLIBC_HAS_STDIO_BUFSIZ_4096__
c 3 __UCLIBC_HAS_GLIBC_CUSTOM_STREAMS__
c 5 __UCLIBC_HAS_STDIO_BUFSIZ_256__
c 6 __UCLIBC_HAS_STDIO_BUFSIZ_8192__
c 2 __UCLIBC_HAS_STDIO_BUFSIZ_2048__
p cnf 8 1
1 2 4 -3 5 6 7 8 1
